13
0  12 29 22 13 24 11 27 13 22 18 25 30
12 0  27 21 11 11 24 17 15 23 19 10 22
29 27 0  12 23 20 18 30 20 15 14 21 11
22 21 12 0  23 28 16 10 25 14 11 19 20
13 11 23 23 0  15 11 20 19 22 21 18 14
24 11 20 28 15 0  12 10 16 20 22 13 19
11 24 18 16 11 12 0  20 12 15 17 22 25
27 17 30 10 20 10 20 0  25 11 14 16 12
13 15 20 25 19 16 12 25 0  10 13 20 18
22 23 15 14 22 20 15 11 10 0  12 14 16
18 19 14 11 21 22 17 14 13 12 0  15 20
25 10 21 19 18 13 22 16 20 14 15 0  11
30 22 11 20 14 19 25 12 18 16 20 11 0